30
1 0 32
2 0 75
2 1 43
3 0 35
3 1 69
3 2 63
4 0 22
4 1 10
4 2 36
4 3 31
5 0 74
5 1 20
5 2 42
5 3 1
5 4 63
6 0 12
6 1 68
6 2 5
6 3 61
6 4 69
6 5 79
7 0 8
7 1 56
7 2 65
7 3 71
7 4 56
7 5 76
7 6 9
8 0 45
8 1 21
8 2 45
8 3 78
8 4 51
8 5 77
8 6 42
8 7 6
9 0 3
9 1 35
9 2 2
9 3 15
9 4 20
9 5 72
9 6 58
9 7 30
9 8 80
10 0 64
10 1 31
10 2 32
10 3 6
10 4 17
10 5 45
10 6 15
10 7 51
10 8 37
10 9 76
11 0 51
11 1 43
11 2 72
11 3 55
11 4 3
11 5 13
11 6 55
11 7 72
11 8 63
11 9 75
11 10 69
12 0 71
12 1 23
12 2 51
12 3 29
12 4 7
12 5 16
12 6 69
12 7 53
12 8 55
12 9 33
12 10 49
12 11 77
13 0 17
13 1 33
13 2 51
13 3 33
13 4 64
13 5 72
13 6 80
13 7 54
13 8 73
13 9 63
13 10 21
13 11 62
13 12 45
14 0 6
14 1 64
14 2 9
14 3 30
14 4 14
14 5 44
14 6 80
14 7 15
14 8 39
14 9 6
14 10 17
14 11 62
14 12 45
14 13 51
15 0 23
15 1 8
15 2 12
15 3 65
15 4 52
15 5 12
15 6 57
15 7 56
15 8 71
15 9 3
15 10 33
15 11 78
15 12 35
15 13 23
15 14 55
16 0 7
16 1 65
16 2 18
16 3 59
16 4 37
16 5 7
16 6 74
16 7 51
16 8 49
16 9 11
16 10 22
16 11 79
16 12 23
16 13 74
16 14 75
16 15 15
17 0 26
17 1 69
17 2 25
17 3 57
17 4 49
17 5 80
17 6 76
17 7 14
17 8 33
17 9 45
17 10 57
17 11 71
17 12 4
17 13 10
17 14 71
17 15 11
17 16 42
18 0 32
18 1 79
18 2 54
18 3 60
18 4 39
18 5 69
18 6 72
18 7 22
18 8 80
18 9 35
18 10 56
18 11 70
18 12 34
18 13 11
18 14 9
18 15 20
18 16 56
18 17 73
19 0 18
19 1 61
19 2 62
19 3 28
19 4 66
19 5 80
19 6 54
19 7 21
19 8 70
19 9 37
19 10 30
19 11 65
19 12 71
19 13 59
19 14 32
19 15 1
19 16 32
19 17 4
19 18 10
20 0 11
20 1 51
20 2 72
20 3 79
20 4 46
20 5 62
20 6 20
20 7 19
20 8 65
20 9 21
20 10 34
20 11 71
20 12 69
20 13 37
20 14 67
20 15 80
20 16 19
20 17 29
20 18 77
20 19 36
21 0 26
21 1 3
21 2 29
21 3 61
21 4 51
21 5 28
21 6 55
21 7 67
21 8 30
21 9 70
21 10 56
21 11 35
21 12 32
21 13 4
21 14 14
21 15 68
21 16 27
21 17 19
21 18 66
21 19 15
21 20 36
22 0 77
22 1 65
22 2 4
22 3 54
22 4 41
22 5 36
22 6 54
22 7 68
22 8 72
22 9 17
22 10 62
22 11 67
22 12 57
22 13 78
22 14 40
22 15 40
22 16 21
22 17 23
22 18 43
22 19 24
22 20 16
22 21 12
23 0 9
23 1 17
23 2 44
23 3 22
23 4 22
23 5 22
23 6 55
23 7 13
23 8 1
23 9 54
23 10 57
23 11 26
23 12 72
23 13 46
23 14 33
23 15 34
23 16 31
23 17 67
23 18 49
23 19 19
23 20 68
23 21 22
23 22 52
24 0 57
24 1 4
24 2 27
24 3 22
24 4 46
24 5 67
24 6 24
24 7 23
24 8 6
24 9 64
24 10 14
24 11 37
24 12 2
24 13 49
24 14 1
24 15 73
24 16 8
24 17 5
24 18 37
24 19 64
24 20 11
24 21 80
24 22 52
24 23 67
25 0 70
25 1 78
25 2 43
25 3 27
25 4 20
25 5 65
25 6 56
25 7 47
25 8 31
25 9 64
25 10 78
25 11 57
25 12 67
25 13 11
25 14 25
25 15 38
25 16 49
25 17 57
25 18 7
25 19 49
25 20 6
25 21 39
25 22 32
25 23 46
25 24 75
26 0 73
26 1 25
26 2 76
26 3 58
26 4 26
26 5 77
26 6 58
26 7 35
26 8 15
26 9 3
26 10 25
26 11 28
26 12 36
26 13 3
26 14 1
26 15 27
26 16 55
26 17 26
26 18 10
26 19 66
26 20 53
26 21 69
26 22 18
26 23 33
26 24 24
26 25 10
27 0 1
27 1 2
27 2 38
27 3 55
27 4 67
27 5 47
27 6 5
27 7 27
27 8 78
27 9 8
27 10 79
27 11 63
27 12 76
27 13 30
27 14 27
27 15 29
27 16 61
27 17 57
27 18 63
27 19 11
27 20 57
27 21 47
27 22 73
27 23 42
27 24 1
27 25 65
27 26 6
28 0 18
28 1 59
28 2 73
28 3 71
28 4 78
28 5 42
28 6 49
28 7 60
28 8 51
28 9 4
28 10 59
28 11 45
28 12 38
28 13 37
28 14 73
28 15 69
28 16 57
28 17 78
28 18 62
28 19 78
28 20 51
28 21 48
28 22 52
28 23 65
28 24 77
28 25 39
28 26 79
28 27 44
29 0 7
29 1 35
29 2 70
29 3 9
29 4 46
29 5 52
29 6 30
29 7 33
29 8 79
29 9 41
29 10 67
29 11 60
29 12 56
29 13 32
29 14 77
29 15 54
29 16 49
29 17 32
29 18 51
29 19 17
29 20 64
29 21 41
29 22 54
29 23 41
29 24 21
29 25 3
29 26 71
29 27 8
29 28 61
